data;

param num_top:=2;

#nodes and edges of the physical network
param n := 10;

set E := (1,2) (1,3) (1,7) (2,4) (2,7) (3,5) (4,8) (5,6) (5,7) (6,7) (6,9) (7,8) (7,9) (8,10) (9,10) ;

#nodes and edges of the virtual networks
set Nl[1] := 3 7 6 9 5 ;
set Nl[2] := 8 5 10 6 9 ;

set El[1] := (3,7) (6,7) (6,9) (5,9) (3,5) (3,6) (5,6) (7,9) (3,9) (5,7) ;
set El[2] := (5,8) (5,10) (6,10) (6,9) (8,9) (5,9) (6,8) (8,10) (9,10) (5,6) ;
